
Gurobi 12.0.2 (win64) logging started Tue Jun 10 14:59:32 2025

Set parameter LogFile to value "C:\Ioana\_uni\honours\slp\algorithm\Main_files\results\removing_sulfation\Task_002_Sample002_irr_gurobi.log"
Gurobi Optimizer version 12.0.2 build v12.0.2rc0 (win64 - Windows 11.0 (26100.2))

CPU model: Intel(R) Core(TM) Ultra 5 125H, instruction set [SSE2|AVX|AVX2]
Thread count: 14 physical cores, 18 logical processors, using up to 18 threads

Non-default parameters:
TimeLimit  2200

Optimize a model with 47236 rows, 34503 columns and 146713 nonzeros
Model fingerprint: 0x46ea3d66
Variable types: 17254 continuous, 17249 integer (17249 binary)
Coefficient statistics:
  Matrix range     [1e-04, 8e+04]
  Objective range  [4e-04, 9e-01]
  Bounds range     [1e+00, 1e+03]
  RHS range        [1e+00, 1e+00]
Found heuristic solution: objective 0.1013330
Presolve removed 41689 rows and 29980 columns
Presolve time: 0.30s
Presolved: 5547 rows, 4523 columns, 16565 nonzeros
Variable types: 2242 continuous, 2281 integer (2281 binary)

Root relaxation: objective 2.866979e-02, 196 iterations, 0.00 seconds (0.01 work units)

    Nodes    |    Current Node    |     Objective Bounds      |     Work
 Expl Unexpl |  Obj  Depth IntInf | Incumbent    BestBd   Gap | It/Node Time

     0     0    0.02867    0    2    0.10133    0.02867  71.7%     -    0s
H    0     0                       0.0411854    0.02867  30.4%     -    0s
     0     0    0.02867    0    2    0.04119    0.02867  30.4%     -    0s

Explored 1 nodes (196 simplex iterations) in 0.34 seconds (0.37 work units)
Thread count was 18 (of 18 available processors)

Solution count 2: 0.0411854 0.101333 

Optimal solution found (tolerance 1.00e-04)
Best objective 4.118543270446e-02, best bound 4.118543270446e-02, gap 0.0000%
